AES/1_2_8/ssaes_r1-20_c2_rw1_e8_f0_k1-20_aes_canon_box_aes_mc_bidirectional/ExperimentMinisat_r5_k15cnf_2011-11-07-114635/Result
WARNING: for repeatability, setting FPU to use double precision
============================[ Problem Statistics ]=============================
|                                                                             |
|  Number of variables:          4288                                         |
|  Number of clauses:           66319                                         |
|  Parse time:                   0.02 s                                       |
|  Eliminated clauses:           0.00 Mb                                      |
|  Simplification time:          0.08 s                                       |
|                                                                             |
=============================[ Search Statistics ]==============================
| Conflicts  |          ORIGINAL         |          LEARNT          | Progress |
|            |    Vars  Clauses Literals |    Limit  Clauses Lit/Cl |          |
================================================================================
|        100 |    4120    65903   193792 |    24164      100    211 |  1.681 % |
|        250 |    4120    65903   193792 |    26580      250    111 |  1.680 % |
|        475 |    4120    65903   193792 |    29238      475     73 |  1.680 % |
|        812 |    4120    65903   193792 |    32162      812     50 |  1.679 % |
|       1318 |    4120    65903   193792 |    35379     1318     64 |  1.679 % |
|       2077 |    4120    65903   193792 |    38917     2077     64 |  1.679 % |
|       3216 |    4120    65903   193792 |    42808     3216     63 |  1.680 % |
|       4924 |    4120    65903   193792 |    47089     4924     63 |  1.679 % |
|       7486 |    4120    65903   193792 |    51798     7486     60 |  1.680 % |
|      11330 |    4120    65903   193792 |    56978    11330     56 |  1.680 % |
|      17096 |    4120    65903   193792 |    62676    17096     51 |  1.679 % |
|      25745 |    4120    65903   193792 |    68943    25745     49 |  1.680 % |
|      38719 |    4120    65903   193792 |    75838    38719     45 |  1.680 % |
===============================================================================
restarts              : 127
conflicts             : 38719          (3729 /sec)
decisions             : 71773          (0.00 % random) (6912 /sec)
propagations          : 65895939       (6345654 /sec)
conflict literals     : 1736378        (90.04 % deleted)
Memory used           : 21.00 MB
CPU time              : 10.3844 s

SATISFIABLE
